words_hard_train/5209.qaiger
aag 56 15 0 1 41
2
4
12
14
18
22
24
30
34
44
52
70
74
88
96
113
6 2 4
8 3 5
10 7 9
16 12 14
20 16 18
26 22 24
28 20 26
32 28 30
36 32 34
38 11 37
40 10 36
42 39 41
46 45 12
48 44 13
50 47 49
54 52 18
56 53 19
58 55 57
60 50 59
62 60 23
64 43 62
66 29 31
68 67 33
72 69 70
76 75 24
78 73 77
80 64 78
82 74 25
84 33 35
86 85 37
90 86 89
92 83 91
94 87 88
98 97 14
100 96 15
102 99 101
104 68 71
106 102 105
108 95 106
110 92 108
112 80 110
i0 1 x2[7]
i1 2 y2[6]
i2 1 x2[1]
i3 1 x2[4]
i4 1 x2[2]
i5 1 x2[0]
i6 1 x2[3]
i7 1 x2[5]
i8 1 x2[6]
i9 2 y2[0]
i10 2 y2[1]
i11 2 y2[4]
i12 2 y2[2]
i13 2 y2[5]
i14 2 y2[3]
o0 bool[0]
c
simplified
  !=
    xor
      << 1
        2 y2
      add
        1 x2
        1
    1
