words_hard_train/5209.qaiger.qdimacs
p cnf 56 124
a 1 6 7 9 11 12 15 17 0
e 2 3 4 5 8 10 13 14 16 18 19 20 21 22 23 24 25 26 27 28 29 30 31 32 33 34 35 36 37 38 39 40 41 42 43 44 45 46 47 48 49 50 51 52 53 54 55 56 0
-1 -2 3 0
1 -3 0
2 -3 0
1 2 4 0
-1 -4 0
-2 -4 0
3 4 5 0
-3 -5 0
-4 -5 0
-6 -7 8 0
6 -8 0
7 -8 0
-8 -9 10 0
8 -10 0
9 -10 0
-11 -12 13 0
11 -13 0
12 -13 0
-10 -13 14 0
10 -14 0
13 -14 0
-14 -15 16 0
14 -16 0
15 -16 0
-16 -17 18 0
16 -18 0
17 -18 0
5 18 19 0
-5 -19 0
-18 -19 0
-5 -18 20 0
5 -20 0
18 -20 0
19 20 21 0
-19 -21 0
-20 -21 0
22 -6 23 0
-22 -23 0
6 -23 0
-22 6 24 0
22 -24 0
-6 -24 0
23 24 25 0
-23 -25 0
-24 -25 0
-26 -9 27 0
26 -27 0
9 -27 0
26 9 28 0
-26 -28 0
-9 -28 0
27 28 29 0
-27 -29 0
-28 -29 0
-25 29 30 0
25 -30 0
-29 -30 0
-30 11 31 0
30 -31 0
-11 -31 0
21 -31 32 0
-21 -32 0
31 -32 0
14 15 33 0
-14 -33 0
-15 -33 0
33 16 34 0
-33 -34 0
-16 -34 0
34 -35 36 0
-34 -36 0
35 -36 0
37 -12 38 0
-37 -38 0
12 -38 0
36 38 39 0
-36 -39 0
-38 -39 0
-32 -39 40 0
32 -40 0
39 -40 0
-37 12 41 0
37 -41 0
-12 -41 0
16 17 42 0
-16 -42 0
-17 -42 0
42 18 43 0
-42 -43 0
-18 -43 0
-43 44 45 0
43 -45 0
-44 -45 0
41 45 46 0
-41 -46 0
-45 -46 0
43 -44 47 0
-43 -47 0
44 -47 0
48 -7 49 0
-48 -49 0
7 -49 0
-48 7 50 0
48 -50 0
-7 -50 0
49 50 51 0
-49 -51 0
-50 -51 0
-34 35 52 0
34 -52 0
-35 -52 0
-51 52 53 0
51 -53 0
-52 -53 0
47 -53 54 0
-47 -54 0
53 -54 0
-46 -54 55 0
46 -55 0
54 -55 0
-40 -55 56 0
40 -56 0
55 -56 0
-56 0
